h=9;
w=9;
s=3;
b=[|0,9,0,0,0,0,0,0,0|0,1,0,0,0,0,9,0,0|5,0,4,0,0,3,0,0,0|0,7,0,2,3,0,0,0,8|0,0,0,0,0,6,0,0,0|0,2,0,0,0,7,3,0,0|7,0,2,6,4,0,0,3,0|0,0,3,0,0,0,0,7,9|1,0,0,0,7,2,6,4,0|];
t=[|0,1,1,0,1,0,1,0,1|1,1,0,1,0,1,1,0,0|1,0,0,1,0,1,1,0,1|1,1,0,0,1,1,0,1,0|0,1,1,1,0,0,1,1,0|0,0,1,0,1,1,1,1,0|1,1,0,0,0,1,0,1,1|0,0,1,1,1,0,0,1,1|1,0,1,1,1,0,0,0,1|];
